000 000 000 000 -99 000 000 000 -99 -99 -99 -99 -99 000 000 000 -99 -99 000 000 000 000 000 000 000 -99 000 000 -99 001 001
000 000 000 000 000 000 000 000 -99 -99 -99 -99 -99 -99 000 000 -99 -99 -99 000 000 000 000 000 000 000 000 000 -99 001 000
000 000 000 000 000 000 000 000 000 -99 -99 -99 -99 -99 000 000 -99 -99 -99 -99 000 -99 000 000 000 000 000 000 000 -99 001
000 000 000 000 000 000 000 000 000 -99 -99 000 -99 -99 000 000 -99 -99 -99 -99 000 000 000 000 000 000 000 000 -99 -99 000
000 000 000 000 000 000 000 000 000 -99 -99 000 000 000 000 000 000 -99 -99 -99 000 000 000 000 000 000 -99 -99 -99 -99 -99
000 000 000 000 000 000 000 000 000 -99 -99 000 000 -99 000 000 -99 -99 -99 -99 000 000 000 000 000 000 -99 -99 -99 -99 -99
000 000 000 000 000 000 000 000 000 000 -99 000 -99 000 000 000 -99 000 -99 -99 000 000 000 000 000 000 -99 -99 -99 -99 -99
000 000 000 000 -99 000 000 000 000 000 000 -99 -99 -99 000 000 000 000 -99 -99 000 000 -99 000 000 -99 -99 -99 -99 -99 000
000 000 000 000 000 000 -99 -99 000 000 000 000 -99 -99 -99 -99 000 000 000 -99 000 -99 -99 000 000 -99 -99 -99 -99 -99 000
000 000 000 000 000 000 000 -99 000 000 000 000 -99 -99 -99 -99 000 000 000 000 000 -99 -99 -99 000 -99 000 000 000 000 000
000 000 000 000 000 000 000 000 000 000 000 000 000 -99 -99 -99 000 000 000 000 -99 -99 -99 -99 000 -99 000 000 000 000 000
000 000 000 000 000 000 000 000 000 000 000 000 000 -99 -99 000 000 -99 000 -99 -99 -99 -99 000 000 -99 000 000 000 000 000
000 000 000 000 000 000 000 000 -99 000 000 000 -99 -99 -99 000 000 000 -99 000 -99 -99 -99 000 000 000 000 000 000 000 -99
000 000 000 000 000 000 000 000 -99 -99 000 000 -99 -99 -99 -99 000 000 000 000 -99 -99 -99 000 000 000 000 000 000 -99 -99
000 -99 000 000 000 000 000 000 000 -99 -99 -99 -99 000 -99 000 000 000 000 000 -99 -99 -99 000 000 000 000 000 000 -99 -99
-99 -99 000 000 000 000 000 000 000 -99 -99 -99 -99 000 000 000 000 000 000 -99 -99 -99 -99 000 000 000 000 000 000 -99 000
000 -99 000 000 000 000 000 000 000 -99 -99 -99 -99 000 000 000 000 000 000 -99 -99 -99 000 000 000 000 000 000 000 000 -99
000 000 000 -99 000 000 -99 000 000 -99 -99 -99 -99 000 000 000 000 000 000 -99 -99 -99 000 -99 000 000 000 000 -99 000 -99
000 000 000 000 000 000 000 000 000 000 -99 -99 -99 -99 000 000 000 000 000 -99 -99 000 000 000 000 -99 -99 -99 -99 000 -99
000 000 000 000 000 000 -99 000 000 000 -99 -99 -99 -99 000 -99 000 000 000 000 -99 -99 000 000 000 -99 -99 -99 -99 000 -99
000 000 000 000 000 000 -99 -99 000 000 -99 -99 -99 -99 -99 -99 000 000 000 000 000 000 000 -99 -99 -99 -99 -99 -99 -99 -99
000 000 000 000 000 000 -99 000 000 000 -99 -99 -99 -99 000 000 000 000 000 000 000 000 000 -99 -99 -99 -99 -99 -99 -99 -99
000 000 000 000 000 000 -99 000 000 000 -99 -99 -99 -99 000 000 000 000 000 000 000 000 000 -99 -99 -99 -99 -99 -99 -99 -99
000 000 000 000 -99 -99 -99 000 000 000 -99 -99 -99 000 000 000 000 000 000 000 000 000 000 -99 -99 -99 -99 -99 -99 -99 -99
000 000 000 000 -99 -99 -99 000 000 -99 -99 -99 -99 000 000 000 000 000 000 000 000 000 000 -99 -99 -99 -99 -99 -99 -99 -99
000 000 000 000 -99 -99 000 000 000 000 -99 -99 -99 000 000 000 000 000 000 000 000 -99 000 -99 -99 -99 -99 -99 -99 -99 000
000 000 000 000 000 000 000 000 000 000 000 -99 -99 -99 -99 000 000 000 000 -99 -99 000 000 -99 -99 -99 -99 -99 -99 -99 -99
000 000 000 000 000 -99 000 000 000 000 -99 -99 -99 000 000 000 000 000 000 000 000 000 000 -99 -99 -99 -99 -99 -99 -99 -99
000 000 000 000 000 000 000 000 000 000 -99 -99 -99 000 000 000 000 000 000 000 000 000 -99 -99 -99 -99 -99 -99 -99 -99 -99
-99 000 000 000 000 000 000 000 000 000 -99 -99 -99 000 000 000 000 000 000 000 000 000 -99 000 -99 -99 -99 -99 -99 -99 -99
000 000 000 000 000 000 000 000 000 000 -99 -99 -99 000 000 000 000 000 000 000 000 000 -99 000 000 -99 -99 -99 -99 -99 -99
000 000 000 000 000 000 000 000 000 -99 -99 -99 -99 000 000 000 000 000 000 -99 -99 000 000 000 000 -99 -99 -99 -99 -99 000
000 000 000 000 000 000 000 000 000 -99 -99 -99 -99 -99 000 000 000 000 000 -99 -99 -99 000 000 -99 -99 -99 000 000 000 000
000 000 000 000 000 000 000 000 000 -99 -99 -99 -99 000 000 000 000 000 000 -99 -99 000 000 000 -99 -99 -99 000 000 000 000
-99 000 000 000 000 000 000 000 000 000 -99 -99 -99 000 000 000 000 000 -99 000 000 000 000 000 000 000 000 000 000 000 000
000 000 000 000 000 000 -99 000 000 000 -99 -99 000 -99 000 000 000 000 000 000 000 000 000 000 000 000 000 000 000 000 -99
000 000 -99 000 000 -99 -99 000 000 000 -99 -99 000 -99 000 000 000 000 000 000 000 000 000 000 000 000 000 -99 -99 -99 -99
000 -99 -99 000 000 000 -99 000 000 -99 -99 000 000 000 000 000 000 000 000 -99 000 -99 000 000 000 000 000 -99 000 000 -99
000 -99 000 -99 000 000 000 000 000 -99 -99 000 000 000 000 000 000 000 -99 -99 000 -99 000 000 000 000 000 -99 -99 -99 -99
000 -99 000 000 000 -99 000 000 -99 -99 -99 000 000 000 000 000 000 000 -99 -99 -99 -99 000 000 000 000 -99 -99 -99 -99 -99
000 000 000 000 000 000 -99 000 -99 -99 -99 000 000 000 000 000 000 -99 -99 -99 -99 000 000 000 000 -99 -99 -99 -99 -99 -99
000 000 -99 -99 -99 -99 -99 -99 -99 -99 000 000 000 000 000 000 -99 -99 -99 -99 -99 -99 000 -99 -99 -99 -99 -99 -99 -99 -99
-99 -99 -99 -99 -99 -99 -99 -99 -99 -99 -99 000 000 000 000 000 -99 -99 000 -99 -99 000 000 -99 -99 -99 -99 -99 -99 -99 -99
000 -99 -99 -99 -99 -99 -99 -99 -99 -99 -99 000 000 000 000 000 000 000 000 -99 -99 000 -99 -99 -99 -99 -99 000 -99 -99 -99
000 -99 -99 -99 -99 -99 -99 -99 -99 -99 -99 000 000 000 000 000 -99 000 -99 -99 -99 -99 -99 -99 -99 -99 000 000 -99 -99 000
000 -99 -99 -99 -99 -99 -99 -99 -99 -99 -99 000 000 000 000 -99 -99 000 000 -99 000 -99 -99 000 -99 -99 000 000 -99 -99 000
000 -99 -99 -99 -99 -99 -99 -99 -99 -99 -99 000 000 000 000 -99 -99 -99 000 000 000 000 000 000 000 -99 000 000 -99 000 000
-99 -99 -99 -99 -99 -99 -99 -99 -99 -99 -99 -99 000 000 -99 -99 -99 000 -99 000 000 000 000 000 -99 -99 000 000 000 000 000
-99 -99 -99 -99 -99 -99 -99 -99 -99 -99 -99 -99 000 000 -99 -99 -99 -99 -99 000 000 000 000 000 -99 -99 000 000 000 000 000
-99 -99 -99 -99 -99 -99 -99 -99 -99 -99 -99 -99 -99 -99 -99 -99 -99 -99 000 000 000 000 000 000 -99 -99 000 000 000 000 000
-99 -99 -99 -99 -99 -99 -99 -99 -99 -99 -99 -99 -99 -99 -99 -99 -99 -99 000 000 000 000 000 000 -99 -99 000 000 000 000 000
-99 -99 -99 -99 -99 -99 -99 -99 -99 -99 -99 -99 -99 -99 -99 -99 -99 -99 000 000 000 001 000 000 -99 -99 000 000 001 000 -99
-99 -99 -99 -99 -99 -99 000 000 -99 -99 -99 -99 -99 -99 -99 -99 -99 000 000 000 001 001 000 000 -99 -99 000 000 000 000 -99
-99 -99 -99 -99 -99 001 000 000 -99 -99 -99 -99 -99 -99 -99 -99 -99 000 000 000 000 000 000 -99 -99 -99 000 000 000 -99 -99
-99 -99 -99 -99 005 005 001 -99 -99 -99 -99 -99 -99 -99 -99 -99 -99 -99 000 000 000 000 000 -99 -99 -99 000 000 000 -99 -99
